100
128
45
60
54
62
44
33
27
30
60
18
15
55
45
52
21
37
52
58
12
61
47
25
52
3
41
25
36
63
16
28
41
59
63
14
53
2
30
59
20
60
13
52
44
47
42
2
42
1
47
7
3
28
29
57
49
44
37
14
61
38
14
35
20
3
16
6
26
27
28
19
20
20
26
34
18
18
24
36
17
2
38
22
16
3
62
51
15
29
44
39
18
17
23
5
3
49
26
21
23
30